(set-logic QF_NRA_ODE)
(declare-fun F () Real)
(declare-fun F_0_0 () Real)
(declare-fun F_0_t () Real)
(declare-fun M () Real)
(declare-fun M_0_0 () Real)
(declare-fun M_0_t () Real)
(declare-fun K () Real)
(declare-fun K_0_0 () Real)
(declare-fun K_0_t () Real)
(declare-fun b () Real)
(declare-fun b_0_0 () Real)
(declare-fun b_0_t () Real)
(declare-fun kappa () Real)
(declare-fun kappa_0_0 () Real)
(declare-fun kappa_0_t () Real)
(declare-fun t () Real)
(declare-fun t_0_0 () Real)
(declare-fun t_0_t () Real)
(declare-fun time_0 () Real)
(define-ode flow_1 ((= d/dt[b] 0.0)(= d/dt[kappa] 0.0)(= d/dt[t] 1.0)(= d/dt[F] (* F (- (- 0.0 (/ 0.013 (+ 1.0 K))) (* (/ 1.0 7777.8) (+ (/ (+ 772.3 (* kappa 30.4)) (+ F M)) kappa)))))(= d/dt[K] (- (/ (* 0.9 (* 0.013 F)) (+ 1.0 K)) b))(= d/dt[M] (* (/ (- 0.0 M) 1400.0) (+ (/ (+ 772.3 (* kappa 30.4)) (+ F M)) kappa)))))
(assert (>= F_0_0 5))
(assert (<= F_0_0 100))
(assert (>= F_0_t 5))
(assert (<= F_0_t 100))
(assert (>= M_0_0 5))
(assert (<= M_0_0 100))
(assert (>= M_0_t 5))
(assert (<= M_0_t 100))
(assert (>= K_0_0 -0.709055))
(assert (<= K_0_0 10))
(assert (>= K_0_t -0.709055))
(assert (<= K_0_t 10))
(assert (>= b_0_0 0.05375))
(assert (<= b_0_0 0.0575))
(assert (>= b_0_t 0.05375))
(assert (<= b_0_t 0.0575))
(assert (>= kappa_0_0 10.375))
(assert (<= kappa_0_0 10.5625))
(assert (>= kappa_0_t 10.375))
(assert (<= kappa_0_t 10.5625))
(assert (>= time_0 0))
(assert (<= time_0 4))
(assert (>= t_0_0 0))
(assert (<= t_0_0 4))
(assert (>= t_0_t 0))
(assert (<= t_0_t 4))
(assert 
(and 
(= [b_0_t kappa_0_t t_0_t F_0_t M_0_t K_0_t ] (integral 0. time_0 [b_0_0 kappa_0_0 t_0_0 F_0_0 M_0_0 K_0_0 ] flow_1))
(= b_0_0 b_0_t)
(= kappa_0_0 kappa_0_t)
(= t_0_0 0)
(>= F_0_0 25)
(<= F_0_0 25)
(>= M_0_0 43.6)
(<= M_0_0 43.6)
(>= K_0_0 0.02)
(<= K_0_0 0.02)
(= t_0_t 4)
(>= F_0_t 23.6097)
(<= F_0_t 23.8097)
(>= M_0_t 40.351)
(<= M_0_t 40.551)
(>= K_0_t 0.483984)
(<= K_0_t 0.683984)
)
)
(check-sat)
(exit)
